p edge 350
e 0 3
e 0 5
e 0 49
e 0 180
e 1 4
e 1 47
e 1 51
e 1 209
e 1 256
e 1 258
e 2 46
e 2 73
e 2 178
e 2 182
e 2 183
e 2 328
e 2 334
e 3 5
e 3 46
e 3 178
e 3 180
e 3 181
e 4 47
e 4 48
e 4 49
e 5 46
e 6 7
e 6 224
e 6 237
e 6 241
e 6 248
e 7 11
e 7 58
e 7 68
e 7 224
e 7 225
e 7 241
e 7 304
e 8 9
e 8 10
e 8 11
e 8 58
e 9 10
e 9 19
e 9 42
e 9 58
e 9 245
e 10 11
e 10 42
e 10 172
e 10 196
e 11 58
e 11 188
e 11 225
e 12 70
e 12 164
e 12 187
e 12 194
e 12 252
e 13 16
e 13 30
e 13 44
e 13 45
e 13 300
e 13 312
e 13 314
e 13 343
e 14 21
e 14 30
e 14 293
e 14 300
e 14 310
e 14 314
e 15 16
e 15 117
e 15 301
e 15 321
e 15 341
e 15 344
e 15 349
e 16 117
e 16 314
e 16 343
e 16 346
e 17 18
e 17 324
e 17 336
e 18 299
e 18 324
e 18 336
e 19 20
e 19 29
e 19 35
e 19 42
e 19 43
e 19 245
e 20 29
e 20 43
e 20 44
e 21 86
e 21 293
e 21 314
e 21 340
e 21 342
e 21 349
e 22 27
e 22 131
e 22 138
e 22 144
e 22 308
e 23 24
e 23 25
e 23 26
e 23 28
e 23 32
e 23 33
e 23 36
e 23 109
e 24 27
e 24 33
e 24 109
e 24 307
e 24 311
e 25 28
e 25 29
e 25 34
e 25 35
e 25 36
e 25 41
e 26 32
e 26 33
e 26 115
e 27 33
e 27 113
e 27 115
e 27 147
e 27 307
e 27 308
e 28 32
e 28 34
e 28 111
e 29 35
e 29 41
e 29 44
e 30 300
e 30 310
e 30 312
e 31 307
e 31 308
e 31 337
e 31 339
e 32 111
e 32 116
e 33 115
e 34 35
e 34 66
e 34 107
e 34 108
e 34 111
e 35 66
e 36 40
e 36 41
e 36 109
e 36 110
e 37 117
e 37 208
e 37 346
e 37 347
e 38 39
e 38 53
e 38 54
e 39 51
e 39 54
e 39 99
e 40 41
e 40 110
e 40 312
e 41 44
e 41 45
e 41 312
e 42 43
e 42 172
e 42 204
e 43 44
e 43 204
e 43 212
e 44 45
e 44 212
e 44 343
e 44 347
e 45 312
e 46 178
e 46 182
e 47 49
e 47 159
e 47 160
e 47 209
e 47 238
e 48 49
e 48 185
e 48 257
e 48 258
e 49 160
e 49 161
e 49 180
e 50 61
e 50 117
e 50 205
e 50 208
e 50 212
e 50 319
e 50 320
e 51 209
e 51 256
e 52 53
e 52 54
e 52 99
e 52 211
e 52 233
e 52 267
e 53 54
e 53 233
e 54 99
e 55 56
e 55 57
e 55 59
e 55 210
e 55 211
e 55 238
e 55 244
e 56 59
e 56 209
e 56 210
e 57 135
e 57 152
e 57 211
e 57 227
e 57 244
e 58 60
e 58 68
e 58 245
e 59 209
e 59 238
e 60 68
e 60 245
e 60 305
e 61 117
e 61 202
e 61 205
e 61 213
e 61 214
e 62 63
e 62 228
e 62 231
e 62 297
e 63 231
e 63 232
e 63 267
e 63 297
e 64 71
e 64 74
e 64 81
e 64 82
e 64 83
e 65 235
e 65 236
e 65 237
e 65 246
e 65 305
e 66 107
e 66 239
e 66 245
e 66 306
e 67 236
e 67 237
e 67 241
e 67 303
e 67 304
e 68 224
e 68 247
e 68 248
e 68 305
e 69 80
e 69 84
e 69 223
e 69 253
e 69 254
e 70 72
e 70 78
e 70 157
e 70 187
e 70 190
e 70 252
e 70 313
e 71 77
e 71 82
e 72 78
e 72 82
e 72 313
e 73 75
e 73 79
e 73 178
e 73 266
e 73 334
e 74 76
e 74 78
e 74 79
e 74 81
e 74 82
e 74 178
e 75 76
e 75 79
e 75 83
e 75 266
e 76 79
e 76 81
e 76 83
e 77 80
e 77 82
e 77 254
e 78 82
e 78 157
e 78 178
e 78 181
e 78 184
e 79 178
e 80 82
e 80 84
e 80 254
e 80 313
e 81 83
e 82 313
e 84 252
e 84 253
e 84 313
e 85 117
e 85 299
e 85 324
e 85 335
e 86 301
e 86 322
e 86 340
e 86 341
e 86 349
e 87 88
e 87 162
e 87 171
e 87 260
e 87 265
e 88 108
e 88 111
e 88 112
e 88 141
e 88 143
e 88 162
e 88 265
e 88 280
e 88 290
e 88 292
e 89 96
e 89 126
e 89 129
e 89 146
e 89 153
e 90 91
e 90 262
e 90 263
e 90 291
e 90 315
e 90 317
e 90 318
e 91 262
e 92 93
e 92 96
e 92 124
e 92 156
e 93 124
e 93 127
e 93 132
e 93 156
e 94 95
e 94 123
e 94 168
e 94 278
e 94 291
e 95 106
e 95 123
e 95 278
e 96 97
e 96 124
e 96 125
e 96 126
e 96 130
e 96 279
e 97 100
e 97 103
e 97 125
e 97 130
e 97 154
e 97 279
e 98 99
e 98 209
e 98 210
e 99 209
e 99 210
e 99 211
e 100 103
e 100 125
e 100 149
e 101 103
e 101 104
e 101 155
e 101 286
e 101 288
e 102 103
e 102 125
e 102 149
e 102 155
e 102 283
e 103 136
e 103 149
e 103 154
e 103 286
e 104 127
e 104 155
e 104 156
e 104 283
e 105 152
e 105 186
e 105 281
e 105 296
e 106 107
e 106 123
e 106 162
e 106 163
e 106 278
e 106 306
e 107 108
e 107 162
e 107 306
e 108 111
e 108 162
e 109 110
e 109 311
e 110 311
e 110 312
e 110 338
e 111 112
e 111 114
e 111 116
e 111 292
e 112 113
e 112 114
e 112 141
e 112 146
e 112 147
e 113 114
e 113 115
e 113 116
e 113 147
e 114 116
e 115 116
e 117 208
e 117 299
e 117 324
e 117 335
e 117 344
e 117 346
e 118 139
e 118 175
e 118 275
e 119 127
e 119 132
e 119 145
e 119 175
e 120 151
e 120 176
e 120 235
e 120 281
e 120 316
e 121 128
e 121 142
e 121 148
e 121 177
e 121 268
e 121 269
e 121 272
e 121 273
e 121 285
e 121 289
e 122 123
e 122 239
e 122 291
e 122 306
e 122 318
e 123 291
e 123 306
e 124 129
e 124 132
e 124 133
e 124 140
e 125 149
e 125 156
e 125 279
e 126 130
e 126 131
e 126 146
e 126 147
e 127 132
e 127 156
e 128 269
e 129 140
e 130 131
e 130 154
e 131 136
e 131 144
e 131 147
e 131 154
e 132 133
e 132 175
e 132 302
e 133 140
e 133 153
e 133 166
e 133 276
e 133 302
e 134 150
e 134 263
e 134 277
e 134 315
e 135 152
e 135 227
e 135 281
e 136 154
e 136 286
e 137 138
e 137 144
e 137 250
e 138 144
e 138 250
e 138 308
e 139 175
e 139 274
e 139 275
e 139 302
e 140 153
e 141 143
e 141 146
e 141 153
e 142 148
e 142 268
e 142 295
e 143 153
e 143 276
e 143 280
e 145 175
e 145 273
e 146 147
e 146 153
e 148 177
e 148 186
e 148 295
e 150 277
e 150 315
e 150 316
e 151 227
e 151 235
e 151 236
e 151 281
e 152 211
e 152 281
e 152 296
e 155 283
e 156 283
e 157 158
e 157 161
e 157 179
e 157 184
e 157 190
e 158 160
e 158 161
e 158 190
e 159 160
e 159 190
e 159 238
e 160 161
e 160 190
e 161 179
e 161 180
e 162 163
e 162 170
e 162 171
e 163 167
e 163 169
e 163 170
e 164 165
e 164 194
e 164 252
e 165 188
e 165 203
e 165 249
e 165 252
e 166 276
e 166 284
e 166 302
e 167 168
e 167 169
e 167 278
e 167 282
e 168 260
e 168 282
e 168 291
e 169 170
e 169 171
e 169 260
e 169 282
e 170 171
e 171 260
e 172 196
e 172 198
e 172 201
e 172 204
e 172 222
e 173 217
e 173 218
e 173 219
e 174 197
e 174 198
e 174 206
e 174 223
e 174 254
e 175 273
e 175 275
e 175 285
e 175 302
e 176 272
e 176 274
e 176 277
e 176 281
e 176 284
e 176 287
e 176 316
e 177 186
e 177 272
e 177 281
e 178 181
e 179 180
e 179 184
e 180 181
e 180 184
e 181 184
e 182 183
e 183 328
e 185 255
e 185 257
e 185 258
e 186 281
e 186 295
e 186 296
e 187 190
e 187 193
e 187 194
e 188 196
e 188 225
e 188 249
e 188 252
e 189 192
e 189 193
e 189 194
e 189 203
e 190 191
e 190 193
e 190 238
e 191 192
e 191 193
e 191 195
e 191 238
e 191 242
e 191 251
e 192 193
e 192 203
e 192 251
e 193 194
e 194 203
e 195 234
e 195 240
e 195 242
e 195 251
e 196 252
e 197 198
e 197 199
e 197 207
e 197 222
e 198 206
e 198 222
e 198 223
e 199 200
e 199 207
e 199 219
e 199 220
e 200 219
e 200 220
e 201 204
e 201 212
e 201 216
e 201 221
e 201 222
e 202 205
e 202 212
e 202 213
e 202 216
e 203 249
e 204 212
e 205 212
e 206 223
e 207 219
e 208 212
e 208 320
e 208 347
e 209 210
e 209 238
e 210 211
e 211 267
e 211 296
e 212 216
e 212 319
e 212 320
e 212 347
e 213 214
e 213 216
e 214 215
e 214 217
e 215 216
e 215 217
e 215 218
e 216 218
e 216 219
e 216 221
e 217 218
e 218 219
e 219 220
e 219 221
e 220 221
e 220 222
e 221 222
e 223 252
e 223 253
e 223 254
e 225 226
e 225 240
e 225 304
e 226 234
e 226 240
e 226 243
e 226 244
e 226 303
e 226 304
e 227 236
e 227 244
e 227 281
e 228 231
e 228 271
e 228 296
e 228 297
e 229 230
e 229 232
e 230 232
e 230 270
e 230 294
e 231 267
e 231 296
e 232 233
e 232 267
e 232 294
e 232 297
e 233 267
e 234 240
e 234 242
e 234 243
e 235 236
e 235 239
e 235 305
e 235 315
e 235 316
e 236 237
e 236 244
e 236 303
e 237 241
e 237 246
e 237 247
e 237 248
e 238 242
e 238 243
e 238 244
e 239 245
e 239 305
e 239 306
e 239 315
e 239 317
e 239 318
e 240 249
e 240 251
e 241 304
e 242 243
e 243 244
e 244 303
e 245 305
e 246 247
e 246 305
e 247 248
e 247 305
e 249 251
e 250 309
e 252 253
e 252 313
e 255 256
e 255 258
e 256 258
e 256 259
e 258 259
e 260 261
e 260 264
e 260 265
e 260 282
e 260 291
e 261 262
e 261 263
e 261 264
e 261 291
e 262 263
e 262 291
e 263 264
e 263 277
e 264 265
e 264 277
e 265 277
e 266 326
e 266 327
e 266 332
e 266 334
e 267 296
e 268 269
e 268 270
e 268 271
e 268 295
e 269 270
e 270 271
e 270 294
e 270 298
e 271 295
e 271 296
e 271 297
e 271 298
e 272 275
e 272 281
e 272 285
e 272 287
e 273 285
e 273 289
e 274 275
e 274 284
e 274 287
e 274 302
e 275 285
e 275 287
e 276 280
e 277 280
e 277 284
e 277 316
e 280 284
e 284 302
e 285 289
e 286 288
e 290 292
e 293 342
e 294 297
e 294 298
e 295 296
e 297 298
e 299 336
e 299 344
e 299 348
e 300 314
e 301 321
e 301 322
e 301 323
e 301 340
e 301 344
e 303 304
e 307 308
e 307 311
e 308 309
e 308 337
e 309 337
e 310 312
e 310 338
e 310 345
e 311 338
e 311 345
e 312 338
e 314 349
e 315 316
e 315 317
e 317 318
e 319 320
e 321 323
e 321 341
e 322 323
e 322 341
e 323 341
e 324 335
e 325 326
e 325 327
e 325 332
e 326 327
e 326 329
e 326 330
e 326 331
e 326 332
e 326 333
e 327 332
e 328 333
e 328 334
e 329 330
e 330 331
e 331 333
e 332 333
e 332 334
e 333 334
e 336 344
e 336 348
e 337 339
e 338 345
e 340 342
e 341 349
e 343 346
e 343 347
e 344 348
e 346 347
c k 2
